Route #1: 29 5 15 20 37 36 47 21 28
Route #2: 3 44 24 49 23 43 41 42 22 1 33
Route #3: 35 53 14 11 38 19 54 13
Route #4: 30 48 45 27 52 7 8 46
Route #5: 10 31 25 18 50 32 16 51
Route #6: 17 40 9 39 12 26
Route #7: 4 34 2 6
Cost 620.0801890198372